benchmark/results/graph__10-1000-0.10-04_19/graph__10-1000-0.10-04_19_Quinton_Benders_aux.lp
\ This file has been generated by DOcplex
\ ENCODING=ISO-8859-1
\Problem name: Quinton Benders_auxiliary_sub

Minimize
 obj: 0.000981557053 pi_nr_a0 + 0.001291955949 pi_nr_a1
      + 0.001116042880 pi_nr_a2 + 0.001208969266 pi_nr_a3
      + 0.000800883344 pi_nr_a4 + 0.001833499821 pi_nr_a5
      + 0.001216467132 pi_nr_a6 + 0.000818550920 pi_nr_a7
      + 0.001246392145 pi_nr_a8 + 0.001062678370 pi_nr_a9 + pi_p_a2_a3
      + pi_p_a4_a2 + pi_p_a5_a2 + pi_p_a6_a7 + pi_p_a3_a8 + pi_p_a0_a9
      + pi_p_a6_a3 + pi_p_a5_a8 + pi_p_a4_a9 + pi_p_a4_a1 + pi_p_a5_a3
      + 2580.430910016962 pi_d_a0_a1_proc_2 + 71.684446093237 pi_d_a0_a1_proc_3
      + 2540.910887255773 pi_d_a0_a1_proc_0
      + 2599.304364960481 pi_d_a1_a0_proc_2 + 90.557901036755 pi_d_a1_a0_proc_3
      + 2559.784342199292 pi_d_a1_a0_proc_0
      + 2049.588508711581 pi_d_a0_a2_proc_2 + 794.528798186415 pi_d_a0_a2_proc_3
      + 755.448208338570 pi_d_a0_a2_proc_0 + 3130.769115741371 pi_d_a2_a0_proc_2
      + 1875.709405216205 pi_d_a2_a0_proc_3
      + 1836.628815368360 pi_d_a2_a0_proc_0 + 32.325820143765 pi_d_a0_a3_proc_3
      + 2580.561779269930 pi_d_a0_a3_proc_0
      + 2541.307775657565 pi_d_a0_a3_proc_1 + 50.739703094471 pi_d_a3_a0_proc_3
      + 2598.975662220636 pi_d_a3_a0_proc_0
      + 2559.721658608272 pi_d_a3_a0_proc_1
      + 1946.277305603969 pi_d_a0_a4_proc_2
      + 1906.651958288880 pi_d_a0_a4_proc_0 + 652.538857173773 pi_d_a0_a4_proc_1
      + 3233.464222809045 pi_d_a4_a0_proc_2
      + 3193.838875493956 pi_d_a4_a0_proc_0
      + 1939.725774378849 pi_d_a4_a0_proc_1
      + 1507.282758455776 pi_d_a0_a5_proc_2 + 252.441558775545 pi_d_a0_a5_proc_1
      + 3593.405815945885 pi_d_a5_a0_proc_2
      + 2338.564616265654 pi_d_a5_a0_proc_1 + 650.909728500873 pi_d_a0_a6_proc_2
      + 690.845686738326 pi_d_a0_a6_proc_3 + 1945.494062032006 pi_d_a0_a6_proc_0
      + 1905.127257179043 pi_d_a0_a6_proc_1
      + 1940.721361275750 pi_d_a6_a0_proc_2
      + 1980.657319513202 pi_d_a6_a0_proc_3
      + 3235.305694806882 pi_d_a6_a0_proc_0
      + 3194.938889953919 pi_d_a6_a0_proc_1
      + 1300.708718738315 pi_d_a0_a7_proc_2 + 14.027230069332 pi_d_a0_a7_proc_3
      + 50.503817159261 pi_d_a0_a7_proc_0 + 1265.298020947303 pi_d_a0_a7_proc_1
      + 3871.439825281210 pi_d_a7_a0_proc_2
      + 2584.758336612227 pi_d_a7_a0_proc_3
      + 2621.234923702155 pi_d_a7_a0_proc_0
      + 3836.029127490197 pi_d_a7_a0_proc_1
      + 1941.515970460908 pi_d_a0_a8_proc_2
      + 3196.896799677422 pi_d_a0_a8_proc_0
      + 3117.322846199721 pi_d_a0_a8_proc_1 + 728.524557485031 pi_d_a8_a0_proc_2
      + 1983.905386701545 pi_d_a8_a0_proc_0
      + 1904.331433223845 pi_d_a8_a0_proc_1
      + 2954.875372987144 pi_d_a0_a9_proc_2
      + 1700.393638175438 pi_d_a0_a9_proc_3
      + 2955.142095231935 pi_d_a0_a9_proc_0
      + 1620.552785992676 pi_d_a0_a9_proc_1
      + 2225.393426793547 pi_d_a9_a0_proc_2 + 970.911691981841 pi_d_a9_a0_proc_3
      + 2225.660149038338 pi_d_a9_a0_proc_0 + 891.070839799079 pi_d_a9_a0_proc_1
      + 1984.001291872217 pi_d_a1_a2_proc_2 + 729.059712177157 pi_d_a1_a2_proc_3
      + 649.906325437767 pi_d_a1_a2_proc_0 + 3196.356405547456 pi_d_a2_a1_proc_2
      + 1941.414825852396 pi_d_a2_a1_proc_3
      + 1862.261439113006 pi_d_a2_a1_proc_0 + 79.224231379184 pi_d_a1_a3_proc_3
      + 2587.387393613804 pi_d_a1_a3_proc_0 + 4.077626485987 pi_d_a3_a1_proc_3
      + 2512.240788720606 pi_d_a3_a1_proc_0
      + 5099.062516884878 pi_d_a1_a4_proc_2
      + 5019.482503508350 pi_d_a1_a4_proc_0 + 80.679084494857 pi_d_a4_a1_proc_2
      + 1.099071118329 pi_d_a4_a1_proc_0 + 4449.591518065674 pi_d_a1_a5_proc_2
      + 651.097129302709 pi_d_a5_a1_proc_2 + 51.731409749118 pi_d_a1_a6_proc_2
      + 91.785498816678 pi_d_a1_a6_proc_3 + 1306.361077218811 pi_d_a1_a6_proc_0
      + 2539.899752994226 pi_d_a6_a1_proc_2
      + 2579.953842061786 pi_d_a6_a1_proc_3
      + 3794.529420463919 pi_d_a6_a1_proc_0
      + 2095.332470085978 pi_d_a1_a7_proc_2 + 808.769112247101 pi_d_a1_a7_proc_3
      + 805.172902445484 pi_d_a1_a7_proc_0 + 3076.816146900269 pi_d_a7_a1_proc_2
      + 1790.252789061393 pi_d_a7_a1_proc_3
      + 1786.656579259776 pi_d_a7_a1_proc_0
      + 2458.638832224312 pi_d_a1_a8_proc_2
      + 3674.064995379387 pi_d_a1_a8_proc_0 + 211.401768688349 pi_d_a8_a1_proc_2
      + 1426.827931843424 pi_d_a8_a1_proc_0
      + 1789.228120297826 pi_d_a1_a9_proc_2 + 534.864516316227 pi_d_a1_a9_proc_3
      + 1749.540176481178 pi_d_a1_a9_proc_0
      + 3391.040752449587 pi_d_a9_a1_proc_2
      + 2136.677148467988 pi_d_a9_a1_proc_3
      + 3351.352808632939 pi_d_a9_a1_proc_0
      + 1218.534949650988 pi_d_a2_a3_proc_3
      + 1218.391080875226 pi_d_a2_a3_proc_0
      + 1372.762764486810 pi_d_a3_a2_proc_3
      + 1372.618895711048 pi_d_a3_a2_proc_0
      + 1335.517593744299 pi_d_a2_a4_proc_2 + 1.317302755949 pi_d_a2_a4_proc_0
      + 3844.846357110945 pi_d_a4_a2_proc_2
      + 2510.646066122595 pi_d_a4_a2_proc_0 + 1.274610516317 pi_d_a2_a5_proc_2
      + 5100.036386327575 pi_d_a5_a2_proc_2
      + 2509.718915028906 pi_d_a2_a6_proc_2
      + 3803.459757495024 pi_d_a2_a6_proc_3
      + 2509.728304886777 pi_d_a2_a6_proc_0 + 82.534597189948 pi_d_a6_a2_proc_2
      + 1376.275439656066 pi_d_a6_a2_proc_3 + 82.543987047819 pi_d_a6_a2_proc_0
      + 2552.113198051721 pi_d_a2_a7_proc_2
      + 2519.236593611404 pi_d_a2_a7_proc_3 + 7.333352799406 pi_d_a2_a7_proc_0
      + 2620.657768410034 pi_d_a7_a2_proc_2
      + 2587.781163969717 pi_d_a7_a2_proc_3 + 75.877923157718 pi_d_a7_a2_proc_0
      + 1183.321000751035 pi_d_a2_a8_proc_2
      + 1144.126886294288 pi_d_a2_a8_proc_0
      + 1487.341949637134 pi_d_a8_a2_proc_2
      + 1448.147835180387 pi_d_a8_a2_proc_0
      + 2111.982837247478 pi_d_a2_a9_proc_2
      + 2111.305986664438 pi_d_a2_a9_proc_3 + 817.674615819007 pi_d_a2_a9_proc_0
      + 3068.908384975444 pi_d_a9_a2_proc_2
      + 3068.231534392403 pi_d_a9_a2_proc_3
      + 1774.600163546973 pi_d_a9_a2_proc_0
      + 1258.497102392195 pi_d_a3_a4_proc_0 + 44.605093532834 pi_d_a3_a4_proc_1
      + 3840.926684269985 pi_d_a4_a3_proc_0
      + 2627.034675410625 pi_d_a4_a3_proc_1
      + 1693.059519531454 pi_d_a3_a5_proc_1 + 977.321792900581 pi_d_a5_a3_proc_1
      + 2590.632411054882 pi_d_a3_a6_proc_3
      + 3884.217507420644 pi_d_a3_a6_proc_0
      + 3884.071794823427 pi_d_a3_a6_proc_1 + 1.930105931825 pi_d_a6_a3_proc_3
      + 1295.515202297588 pi_d_a6_a3_proc_0
      + 1295.369489700371 pi_d_a6_a3_proc_1 + 4.070848593708 pi_d_a3_a7_proc_3
      + 79.484156755719 pi_d_a3_a7_proc_0 + 1334.499452799507 pi_d_a3_a7_proc_1
      + 2515.774228823030 pi_d_a7_a3_proc_3
      + 2591.187536985041 pi_d_a7_a3_proc_0
      + 3846.202833028829 pi_d_a7_a3_proc_1
      + 2865.884023123722 pi_d_a3_a8_proc_0
      + 2826.531161901767 pi_d_a3_a8_proc_1
      + 2313.851116134590 pi_d_a8_a3_proc_0
      + 2274.498254912635 pi_d_a8_a3_proc_1 + 2.274423163644 pi_d_a3_a9_proc_3
      + 1295.959601292224 pi_d_a3_a9_proc_0 + 1.591384308711 pi_d_a3_a9_proc_1
      + 2590.090417728814 pi_d_a9_a3_proc_3
      + 3883.775595857394 pi_d_a9_a3_proc_0
      + 2589.407378873881 pi_d_a9_a3_proc_1
      + 2589.474972095222 pi_d_a4_a5_proc_2 + 119.935776552655 pi_d_a4_a5_proc_1
      + 2511.219928708733 pi_d_a5_a4_proc_2 + 41.680733166166 pi_d_a5_a4_proc_1
      + 2351.672793211928 pi_d_a4_a6_proc_2
      + 3606.197136127722 pi_d_a4_a6_proc_0
      + 2391.192326027763 pi_d_a4_a6_proc_1 + 239.964622966987 pi_d_a6_a4_proc_2
      + 1494.488965882780 pi_d_a6_a4_proc_0 + 279.484155782821 pi_d_a6_a4_proc_1
      + 3224.363967507671 pi_d_a4_a7_proc_2
      + 1934.099075313277 pi_d_a4_a7_proc_0
      + 1974.255273854323 pi_d_a4_a7_proc_1
      + 1947.790902914147 pi_d_a7_a4_proc_2 + 657.526010719753 pi_d_a7_a4_proc_0
      + 697.682209260799 pi_d_a7_a4_proc_1 + 2463.155407116677 pi_d_a4_a8_proc_2
      + 3678.476245717852 pi_d_a4_a8_proc_0
      + 2424.264286993155 pi_d_a4_a8_proc_1 + 206.891447231554 pi_d_a8_a4_proc_2
      + 1422.212285832729 pi_d_a8_a4_proc_0 + 168.000327108032 pi_d_a8_a4_proc_1
      + 2555.544363916145 pi_d_a4_a9_proc_2
      + 2515.751095545597 pi_d_a4_a9_proc_0 + 6.523781059342 pi_d_a4_a9_proc_1
      + 2624.730762266839 pi_d_a9_a4_proc_2
      + 2584.937493896291 pi_d_a9_a4_proc_0 + 75.710179410035 pi_d_a9_a4_proc_1
      + 2511.319896513971 pi_d_a5_a6_proc_2
      + 2589.736678079770 pi_d_a5_a6_proc_1 + 1.264565653592 pi_d_a6_a5_proc_2
      + 79.681347219390 pi_d_a6_a5_proc_1 + 1897.973537488910 pi_d_a5_a7_proc_2
      + 686.762092585526 pi_d_a5_a7_proc_1 + 3195.128378921556 pi_d_a7_a5_proc_2
      + 1983.916934018172 pi_d_a7_a5_proc_1
      + 2590.149371495536 pi_d_a5_a8_proc_2
      + 2590.155500121978 pi_d_a5_a8_proc_1 + 0.844528841344 pi_d_a8_a5_proc_2
      + 0.850657467786 pi_d_a8_a5_proc_1 + 2591.066408800615 pi_d_a5_a9_proc_2
      + 80.943074693776 pi_d_a5_a9_proc_1 + 2510.155763371017 pi_d_a9_a5_proc_2
      + 0.032429264178 pi_d_a9_a5_proc_1 + 2502.790760026917 pi_d_a6_a7_proc_2
      + 3764.909824349219 pi_d_a6_a7_proc_3
      + 2546.735548678745 pi_d_a6_a7_proc_0
      + 3800.638043481934 pi_d_a6_a7_proc_1 + 81.253671758510 pi_d_a7_a6_proc_2
      + 1343.372736080812 pi_d_a7_a6_proc_3 + 125.198460410337 pi_d_a7_a6_proc_0
      + 1379.100955213527 pi_d_a7_a6_proc_1 + 79.924952952925 pi_d_a6_a8_proc_2
      + 2629.455472400321 pi_d_a6_a8_proc_0
      + 2588.989809937768 pi_d_a6_a8_proc_1 + 2.011462758915 pi_d_a8_a6_proc_2
      + 2551.541982206312 pi_d_a8_a6_proc_0
      + 2511.076319743759 pi_d_a8_a6_proc_1
      + 2587.469785076315 pi_d_a6_a9_proc_2
      + 3881.788603255894 pi_d_a6_a9_proc_3
      + 3881.886197551988 pi_d_a6_a9_proc_0
      + 2586.405179327877 pi_d_a6_a9_proc_1 + 4.694902470278 pi_d_a9_a6_proc_2
      + 1299.013720649857 pi_d_a9_a6_proc_3
      + 1299.111314945951 pi_d_a9_a6_proc_0 + 3.630296721840 pi_d_a9_a6_proc_1
      + 1888.979399982493 pi_d_a7_a8_proc_2
      + 1893.720684319703 pi_d_a7_a8_proc_0
      + 3108.416030498155 pi_d_a7_a8_proc_1 + 773.474469972249 pi_d_a8_a7_proc_2
      + 778.215754309459 pi_d_a8_a7_proc_0 + 1992.911100487911 pi_d_a8_a7_proc_1
      + 2016.793878242486 pi_d_a7_a9_proc_2
      + 1984.495249515630 pi_d_a7_a9_proc_3 + 766.421055607972 pi_d_a7_a9_proc_0
      + 726.101046024867 pi_d_a7_a9_proc_1 + 3155.888263547009 pi_d_a9_a7_proc_2
      + 3123.589634820152 pi_d_a9_a7_proc_3
      + 1905.515440912495 pi_d_a9_a7_proc_0
      + 1865.195431329389 pi_d_a9_a7_proc_1
      + 2266.738535623143 pi_d_a8_a9_proc_2
      + 3521.951443784197 pi_d_a8_a9_proc_0
      + 2187.263276935349 pi_d_a8_a9_proc_1 + 403.835590092767 pi_d_a9_a8_proc_2
      + 1659.048498253821 pi_d_a9_a8_proc_0 + 324.360331404972 pi_d_a9_a8_proc_1
      + 0.000076353550 pi_y2_a0_proc_0 + 0.030761718750 pi_y2_a0_proc_1
      + 0.000244169496 pi_y2_a0_proc_2 + 0.968917758204 pi_y2_a0_proc_3
      + 0.030929349363 pi_y2_a1_proc_0 + 0.000244141324 pi_y2_a1_proc_2
      + 0.968826509313 pi_y2_a1_proc_3 + 0.999507807181 pi_y2_a2_proc_0
      + 0.000003851951 pi_y2_a2_proc_2 + 0.000488340868 pi_y2_a2_proc_3
      + 0.000488340855 pi_y2_a3_proc_0 + 0.000114947557 pi_y2_a3_proc_1
      + 0.999396711588 pi_y2_a3_proc_3 + 0.031008266611 pi_y2_a4_proc_0
      + 0.968750006519 pi_y2_a4_proc_1 + 0.000241726870 pi_y2_a4_proc_2
      + 0.969235897064 pi_y2_a5_proc_1 + 0.030764102936 pi_y2_a5_proc_2
      + 0.000000960412 pi_y2_a6_proc_0 + 0.000486873091 pi_y2_a6_proc_1
      + 0.999512166498 pi_y2_a6_proc_2 + 0.000000000000 pi_y2_a6_proc_3
      + 0.968750387430 pi_y2_a7_proc_0 + 0.000000000000 pi_y2_a7_proc_1
      + 0.003173381076 pi_y2_a7_proc_2 + 0.028076231494 pi_y2_a7_proc_3
      + 0.000000022365 pi_y2_a8_proc_0 + 0.030761725488 pi_y2_a8_proc_1
      + 0.969238252146 pi_y2_a8_proc_2 + 0.000000000014 pi_y2_a9_proc_0
      + 0.999885529979 pi_y2_a9_proc_1 + 0.000038147191 pi_y2_a9_proc_2
      + 0.000076322816 pi_y2_a9_proc_3
Subject To
 c1: 0.000977517107 pi_nr_a0 + 0.001282051282 pi_nr_a1 + 0.001116071429 pi_nr_a2
     + 0.001209189843 pi_nr_a3 + 0.000796178344 pi_nr_a4
     + 0.001858736059 pi_nr_a5 + 0.001216545012 pi_nr_a6
     + 0.000805152979 pi_nr_a7 + 0.001251564456 pi_nr_a8
     + 0.001062699256 pi_nr_a9 + pi_p_a2_a3 + pi_p_a4_a2 + pi_p_a5_a2
     + pi_p_a6_a7 + pi_p_a3_a8 + pi_p_a0_a9 + pi_p_a6_a3 + pi_p_a5_a8
     + pi_p_a4_a9 + pi_p_a4_a1 + pi_p_a5_a3 + 2592 pi_d_a0_a1_proc_2
     + 2 pi_d_a0_a1_proc_3 + 2592 pi_d_a0_a1_proc_0 + 2589 pi_d_a1_a0_proc_2
     - pi_d_a1_a0_proc_3 + 2589 pi_d_a1_a0_proc_0 + 1297 pi_d_a0_a2_proc_2
     + 2 pi_d_a0_a2_proc_3 + 2 pi_d_a0_a2_proc_0 + 3884 pi_d_a2_a0_proc_2
     + 2589 pi_d_a2_a0_proc_3 + 2589 pi_d_a2_a0_proc_0 + 2 pi_d_a0_a3_proc_3
     + 2592 pi_d_a0_a3_proc_0 + 2592 pi_d_a0_a3_proc_1 - pi_d_a3_a0_proc_3
     + 2589 pi_d_a3_a0_proc_0 + 2589 pi_d_a3_a0_proc_1 + 1297 pi_d_a0_a4_proc_2
     + 1297 pi_d_a0_a4_proc_0 + 2 pi_d_a0_a4_proc_1 + 3884 pi_d_a4_a0_proc_2
     + 3884 pi_d_a4_a0_proc_0 + 2589 pi_d_a4_a0_proc_1 + 1296 pi_d_a0_a5_proc_2
     + pi_d_a0_a5_proc_1 + 3885 pi_d_a5_a0_proc_2 + 2590 pi_d_a5_a0_proc_1
     + 5 pi_d_a0_a6_proc_2 + 5 pi_d_a0_a6_proc_3 + 1300 pi_d_a0_a6_proc_0
     + 1300 pi_d_a0_a6_proc_1 + 2586 pi_d_a6_a0_proc_2 + 2586 pi_d_a6_a0_proc_3
     + 3881 pi_d_a6_a0_proc_0 + 3881 pi_d_a6_a0_proc_1 + 1299 pi_d_a0_a7_proc_2
     + 4 pi_d_a0_a7_proc_3 + 4 pi_d_a0_a7_proc_0 + 1299 pi_d_a0_a7_proc_1
     + 3882 pi_d_a7_a0_proc_2 + 2587 pi_d_a7_a0_proc_3 + 2587 pi_d_a7_a0_proc_0
     + 3882 pi_d_a7_a0_proc_1 + 2590 pi_d_a0_a8_proc_2 + 3885 pi_d_a0_a8_proc_0
     + 3885 pi_d_a0_a8_proc_1 + pi_d_a8_a0_proc_2 + 1296 pi_d_a8_a0_proc_0
     + 1296 pi_d_a8_a0_proc_1 + 3886 pi_d_a0_a9_proc_2 + 2591 pi_d_a0_a9_proc_3
     + 3886 pi_d_a0_a9_proc_0 + 2591 pi_d_a0_a9_proc_1 + 1295 pi_d_a9_a0_proc_2
     + 1295 pi_d_a9_a0_proc_0 + 1296 pi_d_a1_a2_proc_2 + pi_d_a1_a2_proc_3
     + pi_d_a1_a2_proc_0 + 3885 pi_d_a2_a1_proc_2 + 2590 pi_d_a2_a1_proc_3
     + 2590 pi_d_a2_a1_proc_0 + pi_d_a1_a3_proc_3 + 2591 pi_d_a1_a3_proc_0
     + 2590 pi_d_a3_a1_proc_0 + 5180 pi_d_a1_a4_proc_2 + 5180 pi_d_a1_a4_proc_0
     + pi_d_a4_a1_proc_2 + pi_d_a4_a1_proc_0 + 5180 pi_d_a1_a5_proc_2
     + pi_d_a5_a1_proc_2 + pi_d_a1_a6_proc_2 + pi_d_a1_a6_proc_3
     + 1296 pi_d_a1_a6_proc_0 + 2590 pi_d_a6_a1_proc_2 + 2590 pi_d_a6_a1_proc_3
     + 3885 pi_d_a6_a1_proc_0 + 1296 pi_d_a1_a7_proc_2 + pi_d_a1_a7_proc_3
     + pi_d_a1_a7_proc_0 + 3885 pi_d_a7_a1_proc_2 + 2590 pi_d_a7_a1_proc_3
     + 2590 pi_d_a7_a1_proc_0 + 2589 pi_d_a1_a8_proc_2 + 3884 pi_d_a1_a8_proc_0
     + 2 pi_d_a8_a1_proc_2 + 1297 pi_d_a8_a1_proc_0 + 1295 pi_d_a1_a9_proc_2
     + 1295 pi_d_a1_a9_proc_0 + 3886 pi_d_a9_a1_proc_2 + 2591 pi_d_a9_a1_proc_3
     + 3886 pi_d_a9_a1_proc_0 + pi_d_a2_a3_proc_3 + pi_d_a2_a3_proc_0
     + 2590 pi_d_a3_a2_proc_3 + 2590 pi_d_a3_a2_proc_0 + 1295 pi_d_a2_a4_proc_2
     + 3886 pi_d_a4_a2_proc_2 + 2591 pi_d_a4_a2_proc_0 + 5181 pi_d_a5_a2_proc_2
     + 2590 pi_d_a2_a6_proc_2 + 3885 pi_d_a2_a6_proc_3 + 2590 pi_d_a2_a6_proc_0
     + pi_d_a6_a2_proc_2 + 1296 pi_d_a6_a2_proc_3 + pi_d_a6_a2_proc_0
     + 2591 pi_d_a2_a7_proc_2 + 2591 pi_d_a2_a7_proc_3 + pi_d_a2_a7_proc_0
     + 2590 pi_d_a7_a2_proc_2 + 2590 pi_d_a7_a2_proc_3 + 2591 pi_d_a8_a2_proc_2
     + 2591 pi_d_a8_a2_proc_0 + 1295 pi_d_a2_a9_proc_2 + 1295 pi_d_a2_a9_proc_3
     + 3886 pi_d_a9_a2_proc_2 + 3886 pi_d_a9_a2_proc_3 + 2591 pi_d_a9_a2_proc_0
     + 1295 pi_d_a3_a4_proc_0 + 3886 pi_d_a4_a3_proc_0 + 2591 pi_d_a4_a3_proc_1
     + 2590 pi_d_a3_a5_proc_1 + pi_d_a5_a3_proc_1 + 2590 pi_d_a3_a6_proc_3
     + 3885 pi_d_a3_a6_proc_0 + 3885 pi_d_a3_a6_proc_1 + pi_d_a6_a3_proc_3
     + 1296 pi_d_a6_a3_proc_0 + 1296 pi_d_a6_a3_proc_1 + 4 pi_d_a3_a7_proc_3
     + 4 pi_d_a3_a7_proc_0 + 1299 pi_d_a3_a7_proc_1 + 2587 pi_d_a7_a3_proc_3
     + 2587 pi_d_a7_a3_proc_0 + 3882 pi_d_a7_a3_proc_1 + 5176 pi_d_a3_a8_proc_0
     + 5176 pi_d_a3_a8_proc_1 + 5 pi_d_a8_a3_proc_0 + 5 pi_d_a8_a3_proc_1
     + 1295 pi_d_a3_a9_proc_0 + 2591 pi_d_a9_a3_proc_3 + 3886 pi_d_a9_a3_proc_0
     + 2591 pi_d_a9_a3_proc_1 + 2590 pi_d_a4_a5_proc_2 + 2591 pi_d_a5_a4_proc_2
     + pi_d_a5_a4_proc_1 + 2591 pi_d_a4_a6_proc_2 + 3886 pi_d_a4_a6_proc_0
     + 2591 pi_d_a4_a6_proc_1 + 1295 pi_d_a6_a4_proc_0 + 3873 pi_d_a4_a7_proc_2
     + 2578 pi_d_a4_a7_proc_0 + 2578 pi_d_a4_a7_proc_1 + 1308 pi_d_a7_a4_proc_2
     + 13 pi_d_a7_a4_proc_0 + 13 pi_d_a7_a4_proc_1 + 2589 pi_d_a4_a8_proc_2
     + 3884 pi_d_a4_a8_proc_0 + 2589 pi_d_a4_a8_proc_1 + 2 pi_d_a8_a4_proc_2
     + 1297 pi_d_a8_a4_proc_0 + 2 pi_d_a8_a4_proc_1 + 2590 pi_d_a4_a9_proc_2
     + 2590 pi_d_a4_a9_proc_0 + 2591 pi_d_a9_a4_proc_2 + 2591 pi_d_a9_a4_proc_0
     + pi_d_a9_a4_proc_1 + 2591 pi_d_a5_a6_proc_2 + 2591 pi_d_a5_a6_proc_1
     + 1300 pi_d_a5_a7_proc_2 + 5 pi_d_a5_a7_proc_1 + 3881 pi_d_a7_a5_proc_2
     + 2586 pi_d_a7_a5_proc_1 + 2590 pi_d_a5_a8_proc_2 + 2590 pi_d_a5_a8_proc_1
     + pi_d_a8_a5_proc_2 + pi_d_a8_a5_proc_1 + 2591 pi_d_a5_a9_proc_2
     + pi_d_a5_a9_proc_1 + 2590 pi_d_a9_a5_proc_2 + 2591 pi_d_a6_a7_proc_2
     + 3886 pi_d_a6_a7_proc_3 + 2591 pi_d_a6_a7_proc_0 + 3886 pi_d_a6_a7_proc_1
     + 1295 pi_d_a7_a6_proc_3 + 1295 pi_d_a7_a6_proc_1 + 2590 pi_d_a6_a8_proc_0
     + 2590 pi_d_a6_a8_proc_1 + pi_d_a8_a6_proc_2 + 2591 pi_d_a8_a6_proc_0
     + 2591 pi_d_a8_a6_proc_1 + 2587 pi_d_a6_a9_proc_2 + 3882 pi_d_a6_a9_proc_3
     + 3882 pi_d_a6_a9_proc_0 + 2587 pi_d_a6_a9_proc_1 + 4 pi_d_a9_a6_proc_2
     + 1299 pi_d_a9_a6_proc_3 + 1299 pi_d_a9_a6_proc_0 + 4 pi_d_a9_a6_proc_1
     + 2587 pi_d_a7_a8_proc_2 + 2587 pi_d_a7_a8_proc_0 + 3882 pi_d_a7_a8_proc_1
     + 4 pi_d_a8_a7_proc_2 + 4 pi_d_a8_a7_proc_0 + 1299 pi_d_a8_a7_proc_1
     + 1294 pi_d_a7_a9_proc_2 + 1294 pi_d_a7_a9_proc_3 - pi_d_a7_a9_proc_0
     - pi_d_a7_a9_proc_1 + 3887 pi_d_a9_a7_proc_2 + 3887 pi_d_a9_a7_proc_3
     + 2592 pi_d_a9_a7_proc_0 + 2592 pi_d_a9_a7_proc_1 + 2591 pi_d_a8_a9_proc_2
     + 3886 pi_d_a8_a9_proc_0 + 2591 pi_d_a8_a9_proc_1 + 1295 pi_d_a9_a8_proc_0
     + pi_y2_a0_proc_3 + pi_y2_a1_proc_3 + pi_y2_a2_proc_0 + pi_y2_a3_proc_3
     + pi_y2_a4_proc_1 + pi_y2_a5_proc_1 + pi_y2_a6_proc_2 + pi_y2_a7_proc_0
     + pi_y2_a8_proc_2 + pi_y2_a9_proc_1 = 0.000190403656
 c2: pi_nr_a0 + pi_nr_a1 + pi_nr_a2 + pi_nr_a3 + pi_nr_a4 + pi_nr_a5 + pi_nr_a6
     + pi_nr_a7 + pi_nr_a8 + pi_nr_a9 - pi_y1_a0 - pi_y1_a1 - pi_y1_a2
     - pi_y1_a3 - pi_y1_a4 - pi_y1_a5 - pi_y1_a6 - pi_y1_a7 - pi_y1_a8
     - pi_y1_a9 >= 1
 c3: - pi_p_a1_a0 + pi_p_a0_a9 + pi_d_a0_a1_proc_2 + pi_d_a0_a1_proc_3
     + pi_d_a0_a1_proc_0 - pi_d_a1_a0_proc_2 - pi_d_a1_a0_proc_3
     - pi_d_a1_a0_proc_0 + pi_d_a0_a2_proc_2 + pi_d_a0_a2_proc_3
     + pi_d_a0_a2_proc_0 - pi_d_a2_a0_proc_2 - pi_d_a2_a0_proc_3
     - pi_d_a2_a0_proc_0 + pi_d_a0_a3_proc_3 + pi_d_a0_a3_proc_0
     + pi_d_a0_a3_proc_1 - pi_d_a3_a0_proc_3 - pi_d_a3_a0_proc_0
     - pi_d_a3_a0_proc_1 + pi_d_a0_a4_proc_2 + pi_d_a0_a4_proc_0
     + pi_d_a0_a4_proc_1 - pi_d_a4_a0_proc_2 - pi_d_a4_a0_proc_0
     - pi_d_a4_a0_proc_1 + pi_d_a0_a5_proc_2 + pi_d_a0_a5_proc_1
     - pi_d_a5_a0_proc_2 - pi_d_a5_a0_proc_1 + pi_d_a0_a6_proc_2
     + pi_d_a0_a6_proc_3 + pi_d_a0_a6_proc_0 + pi_d_a0_a6_proc_1
     - pi_d_a6_a0_proc_2 - pi_d_a6_a0_proc_3 - pi_d_a6_a0_proc_0
     - pi_d_a6_a0_proc_1 + pi_d_a0_a7_proc_2 + pi_d_a0_a7_proc_3
     + pi_d_a0_a7_proc_0 + pi_d_a0_a7_proc_1 - pi_d_a7_a0_proc_2
     - pi_d_a7_a0_proc_3 - pi_d_a7_a0_proc_0 - pi_d_a7_a0_proc_1
     + pi_d_a0_a8_proc_2 + pi_d_a0_a8_proc_0 + pi_d_a0_a8_proc_1
     - pi_d_a8_a0_proc_2 - pi_d_a8_a0_proc_0 - pi_d_a8_a0_proc_1
     + pi_d_a0_a9_proc_2 + pi_d_a0_a9_proc_3 + pi_d_a0_a9_proc_0
     + pi_d_a0_a9_proc_1 - pi_d_a9_a0_proc_2 - pi_d_a9_a0_proc_3
     - pi_d_a9_a0_proc_0 - pi_d_a9_a0_proc_1 >= 0
 c4: 939 pi_p_a0_a9 + 939 pi_d_a0_a1_proc_0 + 939 pi_d_a0_a2_proc_0
     + 939 pi_d_a0_a3_proc_0 + 939 pi_d_a0_a4_proc_0 + 939 pi_d_a0_a6_proc_0
     + 939 pi_d_a0_a7_proc_0 + 939 pi_d_a0_a8_proc_0 + 939 pi_d_a0_a9_proc_0
     + pi_y1_a0 + pi_y2_a0_proc_0 >= 0
 c5: 901 pi_p_a0_a9 + 901 pi_d_a0_a3_proc_1 + 901 pi_d_a0_a4_proc_1
     + 901 pi_d_a0_a5_proc_1 + 901 pi_d_a0_a6_proc_1 + 901 pi_d_a0_a7_proc_1
     + 901 pi_d_a0_a8_proc_1 + 901 pi_d_a0_a9_proc_1 + pi_y1_a0
     + pi_y2_a0_proc_1 >= 0
 c6: 1219 pi_p_a0_a9 + 1219 pi_d_a0_a1_proc_2 + 1219 pi_d_a0_a2_proc_2
     + 1219 pi_d_a0_a4_proc_2 + 1219 pi_d_a0_a5_proc_2 + 1219 pi_d_a0_a6_proc_2
     + 1219 pi_d_a0_a7_proc_2 + 1219 pi_d_a0_a8_proc_2 + 1219 pi_d_a0_a9_proc_2
     + pi_y1_a0 + pi_y2_a0_proc_2 >= 0
 c7: 1023 pi_p_a0_a9 + 1023 pi_d_a0_a1_proc_3 + 1023 pi_d_a0_a2_proc_3
     + 1023 pi_d_a0_a3_proc_3 + 1023 pi_d_a0_a6_proc_3 + 1023 pi_d_a0_a7_proc_3
     + 1023 pi_d_a0_a9_proc_3 + pi_y1_a0 + pi_y2_a0_proc_3 >= 0
 c8: pi_p_a1_a0 - pi_p_a2_a1 - pi_p_a4_a1 + pi_p_a1_a4 - pi_d_a0_a1_proc_2
     - pi_d_a0_a1_proc_3 - pi_d_a0_a1_proc_0 + pi_d_a1_a0_proc_2
     + pi_d_a1_a0_proc_3 + pi_d_a1_a0_proc_0 + pi_d_a1_a2_proc_2
     + pi_d_a1_a2_proc_3 + pi_d_a1_a2_proc_0 - pi_d_a2_a1_proc_2
     - pi_d_a2_a1_proc_3 - pi_d_a2_a1_proc_0 + pi_d_a1_a3_proc_3
     + pi_d_a1_a3_proc_0 - pi_d_a3_a1_proc_3 - pi_d_a3_a1_proc_0
     + pi_d_a1_a4_proc_2 + pi_d_a1_a4_proc_0 - pi_d_a4_a1_proc_2
     - pi_d_a4_a1_proc_0 + pi_d_a1_a5_proc_2 - pi_d_a5_a1_proc_2
     + pi_d_a1_a6_proc_2 + pi_d_a1_a6_proc_3 + pi_d_a1_a6_proc_0
     - pi_d_a6_a1_proc_2 - pi_d_a6_a1_proc_3 - pi_d_a6_a1_proc_0
     + pi_d_a1_a7_proc_2 + pi_d_a1_a7_proc_3 + pi_d_a1_a7_proc_0
     - pi_d_a7_a1_proc_2 - pi_d_a7_a1_proc_3 - pi_d_a7_a1_proc_0
     + pi_d_a1_a8_proc_2 + pi_d_a1_a8_proc_0 - pi_d_a8_a1_proc_2
     - pi_d_a8_a1_proc_0 + pi_d_a1_a9_proc_2 + pi_d_a1_a9_proc_3
     + pi_d_a1_a9_proc_0 - pi_d_a9_a1_proc_2 - pi_d_a9_a1_proc_3
     - pi_d_a9_a1_proc_0 >= 0
 c9: 624 pi_p_a1_a0 + 624 pi_p_a1_a4 + 624 pi_d_a1_a0_proc_0
     + 624 pi_d_a1_a2_proc_0 + 624 pi_d_a1_a3_proc_0 + 624 pi_d_a1_a4_proc_0
     + 624 pi_d_a1_a6_proc_0 + 624 pi_d_a1_a7_proc_0 + 624 pi_d_a1_a8_proc_0
     + 624 pi_d_a1_a9_proc_0 + pi_y1_a1 + pi_y2_a1_proc_0 >= 0
 c10: 802 pi_p_a1_a0 + 802 pi_p_a1_a4 + 802 pi_d_a1_a0_proc_2
      + 802 pi_d_a1_a2_proc_2 + 802 pi_d_a1_a4_proc_2 + 802 pi_d_a1_a5_proc_2
      + 802 pi_d_a1_a6_proc_2 + 802 pi_d_a1_a7_proc_2 + 802 pi_d_a1_a8_proc_2
      + 802 pi_d_a1_a9_proc_2 + pi_y1_a1 + pi_y2_a1_proc_2 >= 0
 c11: 780 pi_p_a1_a0 + 780 pi_p_a1_a4 + 780 pi_d_a1_a0_proc_3
      + 780 pi_d_a1_a2_proc_3 + 780 pi_d_a1_a3_proc_3 + 780 pi_d_a1_a6_proc_3
      + 780 pi_d_a1_a7_proc_3 + 780 pi_d_a1_a9_proc_3 + pi_y1_a1
      + pi_y2_a1_proc_3 >= 0
 c12: pi_p_a2_a1 + pi_p_a2_a3 - pi_p_a4_a2 - pi_p_a5_a2 + pi_p_a2_a6
      - pi_p_a7_a2 - pi_d_a0_a2_proc_2 - pi_d_a0_a2_proc_3 - pi_d_a0_a2_proc_0
      + pi_d_a2_a0_proc_2 + pi_d_a2_a0_proc_3 + pi_d_a2_a0_proc_0
      - pi_d_a1_a2_proc_2 - pi_d_a1_a2_proc_3 - pi_d_a1_a2_proc_0
      + pi_d_a2_a1_proc_2 + pi_d_a2_a1_proc_3 + pi_d_a2_a1_proc_0
      + pi_d_a2_a3_proc_3 + pi_d_a2_a3_proc_0 - pi_d_a3_a2_proc_3
      - pi_d_a3_a2_proc_0 + pi_d_a2_a4_proc_2 + pi_d_a2_a4_proc_0
      - pi_d_a4_a2_proc_2 - pi_d_a4_a2_proc_0 + pi_d_a2_a5_proc_2
      - pi_d_a5_a2_proc_2 + pi_d_a2_a6_proc_2 + pi_d_a2_a6_proc_3
      + pi_d_a2_a6_proc_0 - pi_d_a6_a2_proc_2 - pi_d_a6_a2_proc_3
      - pi_d_a6_a2_proc_0 + pi_d_a2_a7_proc_2 + pi_d_a2_a7_proc_3
      + pi_d_a2_a7_proc_0 - pi_d_a7_a2_proc_2 - pi_d_a7_a2_proc_3
      - pi_d_a7_a2_proc_0 + pi_d_a2_a8_proc_2 + pi_d_a2_a8_proc_0
      - pi_d_a8_a2_proc_2 - pi_d_a8_a2_proc_0 + pi_d_a2_a9_proc_2
      + pi_d_a2_a9_proc_3 + pi_d_a2_a9_proc_0 - pi_d_a9_a2_proc_2
      - pi_d_a9_a2_proc_3 - pi_d_a9_a2_proc_0 >= 0
 c13: 896 pi_p_a2_a1 + 896 pi_p_a2_a3 + 896 pi_p_a2_a6 + 896 pi_d_a2_a0_proc_0
      + 896 pi_d_a2_a1_proc_0 + 896 pi_d_a2_a3_proc_0 + 896 pi_d_a2_a4_proc_0
      + 896 pi_d_a2_a6_proc_0 + 896 pi_d_a2_a7_proc_0 + 896 pi_d_a2_a8_proc_0
      + 896 pi_d_a2_a9_proc_0 + pi_y1_a2 + pi_y2_a2_proc_0 >= 0
 c14: 1112 pi_p_a2_a1 + 1112 pi_p_a2_a3 + 1112 pi_p_a2_a6
      + 1112 pi_d_a2_a0_proc_2 + 1112 pi_d_a2_a1_proc_2 + 1112 pi_d_a2_a4_proc_2
      + 1112 pi_d_a2_a5_proc_2 + 1112 pi_d_a2_a6_proc_2 + 1112 pi_d_a2_a7_proc_2
      + 1112 pi_d_a2_a8_proc_2 + 1112 pi_d_a2_a9_proc_2 + pi_y1_a2
      + pi_y2_a2_proc_2 >= 0
 c15: 944 pi_p_a2_a1 + 944 pi_p_a2_a3 + 944 pi_p_a2_a6 + 944 pi_d_a2_a0_proc_3
      + 944 pi_d_a2_a1_proc_3 + 944 pi_d_a2_a3_proc_3 + 944 pi_d_a2_a6_proc_3
      + 944 pi_d_a2_a7_proc_3 + 944 pi_d_a2_a9_proc_3 + pi_y1_a2
      + pi_y2_a2_proc_3 >= 0
 c16: - pi_p_a2_a3 + pi_p_a3_a6 + pi_p_a3_a8 - pi_p_a6_a3 - pi_p_a5_a3
      - pi_d_a0_a3_proc_3 - pi_d_a0_a3_proc_0 - pi_d_a0_a3_proc_1
      + pi_d_a3_a0_proc_3 + pi_d_a3_a0_proc_0 + pi_d_a3_a0_proc_1
      - pi_d_a1_a3_proc_3 - pi_d_a1_a3_proc_0 + pi_d_a3_a1_proc_3
      + pi_d_a3_a1_proc_0 - pi_d_a2_a3_proc_3 - pi_d_a2_a3_proc_0
      + pi_d_a3_a2_proc_3 + pi_d_a3_a2_proc_0 + pi_d_a3_a4_proc_0
      + pi_d_a3_a4_proc_1 - pi_d_a4_a3_proc_0 - pi_d_a4_a3_proc_1
      + pi_d_a3_a5_proc_1 - pi_d_a5_a3_proc_1 + pi_d_a3_a6_proc_3
      + pi_d_a3_a6_proc_0 + pi_d_a3_a6_proc_1 - pi_d_a6_a3_proc_3
      - pi_d_a6_a3_proc_0 - pi_d_a6_a3_proc_1 + pi_d_a3_a7_proc_3
      + pi_d_a3_a7_proc_0 + pi_d_a3_a7_proc_1 - pi_d_a7_a3_proc_3
      - pi_d_a7_a3_proc_0 - pi_d_a7_a3_proc_1 + pi_d_a3_a8_proc_0
      + pi_d_a3_a8_proc_1 - pi_d_a8_a3_proc_0 - pi_d_a8_a3_proc_1
      + pi_d_a3_a9_proc_3 + pi_d_a3_a9_proc_0 + pi_d_a3_a9_proc_1
      - pi_d_a9_a3_proc_3 - pi_d_a9_a3_proc_0 - pi_d_a9_a3_proc_1 >= 0
 c17: 1283 pi_p_a3_a6 + 1283 pi_p_a3_a8 + 1283 pi_d_a3_a0_proc_0
      + 1283 pi_d_a3_a1_proc_0 + 1283 pi_d_a3_a2_proc_0 + 1283 pi_d_a3_a4_proc_0
      + 1283 pi_d_a3_a6_proc_0 + 1283 pi_d_a3_a7_proc_0 + 1283 pi_d_a3_a8_proc_0
      + 1283 pi_d_a3_a9_proc_0 + pi_y1_a3 + pi_y2_a3_proc_0 >= 0
 c18: 896 pi_p_a3_a6 + 896 pi_p_a3_a8 + 896 pi_d_a3_a0_proc_1
      + 896 pi_d_a3_a4_proc_1 + 896 pi_d_a3_a5_proc_1 + 896 pi_d_a3_a6_proc_1
      + 896 pi_d_a3_a7_proc_1 + 896 pi_d_a3_a8_proc_1 + 896 pi_d_a3_a9_proc_1
      + pi_y1_a3 + pi_y2_a3_proc_1 >= 0
 c19: 827 pi_p_a3_a6 + 827 pi_p_a3_a8 + 827 pi_d_a3_a0_proc_3
      + 827 pi_d_a3_a1_proc_3 + 827 pi_d_a3_a2_proc_3 + 827 pi_d_a3_a6_proc_3
      + 827 pi_d_a3_a7_proc_3 + 827 pi_d_a3_a9_proc_3 + pi_y1_a3
      + pi_y2_a3_proc_3 >= 0
 c20: pi_p_a4_a2 + pi_p_a4_a9 + pi_p_a4_a1 - pi_p_a1_a4 - pi_d_a0_a4_proc_2
      - pi_d_a0_a4_proc_0 - pi_d_a0_a4_proc_1 + pi_d_a4_a0_proc_2
      + pi_d_a4_a0_proc_0 + pi_d_a4_a0_proc_1 - pi_d_a1_a4_proc_2
      - pi_d_a1_a4_proc_0 + pi_d_a4_a1_proc_2 + pi_d_a4_a1_proc_0
      - pi_d_a2_a4_proc_2 - pi_d_a2_a4_proc_0 + pi_d_a4_a2_proc_2
      + pi_d_a4_a2_proc_0 - pi_d_a3_a4_proc_0 - pi_d_a3_a4_proc_1
      + pi_d_a4_a3_proc_0 + pi_d_a4_a3_proc_1 + pi_d_a4_a5_proc_2
      + pi_d_a4_a5_proc_1 - pi_d_a5_a4_proc_2 - pi_d_a5_a4_proc_1
      + pi_d_a4_a6_proc_2 + pi_d_a4_a6_proc_0 + pi_d_a4_a6_proc_1
      - pi_d_a6_a4_proc_2 - pi_d_a6_a4_proc_0 - pi_d_a6_a4_proc_1
      + pi_d_a4_a7_proc_2 + pi_d_a4_a7_proc_0 + pi_d_a4_a7_proc_1
      - pi_d_a7_a4_proc_2 - pi_d_a7_a4_proc_0 - pi_d_a7_a4_proc_1
      + pi_d_a4_a8_proc_2 + pi_d_a4_a8_proc_0 + pi_d_a4_a8_proc_1
      - pi_d_a8_a4_proc_2 - pi_d_a8_a4_proc_0 - pi_d_a8_a4_proc_1
      + pi_d_a4_a9_proc_2 + pi_d_a4_a9_proc_0 + pi_d_a4_a9_proc_1
      - pi_d_a9_a4_proc_2 - pi_d_a9_a4_proc_0 - pi_d_a9_a4_proc_1 >= 0
 c21: 1057 pi_p_a4_a2 + 1057 pi_p_a4_a9 + 1057 pi_p_a4_a1
      + 1057 pi_d_a4_a0_proc_0 + 1057 pi_d_a4_a1_proc_0 + 1057 pi_d_a4_a2_proc_0
      + 1057 pi_d_a4_a3_proc_0 + 1057 pi_d_a4_a6_proc_0 + 1057 pi_d_a4_a7_proc_0
      + 1057 pi_d_a4_a8_proc_0 + 1057 pi_d_a4_a9_proc_0 + pi_y1_a4
      + pi_y2_a4_proc_0 >= 0
 c22: 1256 pi_p_a4_a2 + 1256 pi_p_a4_a9 + 1256 pi_p_a4_a1
      + 1256 pi_d_a4_a0_proc_1 + 1256 pi_d_a4_a3_proc_1 + 1256 pi_d_a4_a5_proc_1
      + 1256 pi_d_a4_a6_proc_1 + 1256 pi_d_a4_a7_proc_1 + 1256 pi_d_a4_a8_proc_1
      + 1256 pi_d_a4_a9_proc_1 + pi_y1_a4 + pi_y2_a4_proc_1 >= 0
 c23: 969 pi_p_a4_a2 + 969 pi_p_a4_a9 + 969 pi_p_a4_a1 + 969 pi_d_a4_a0_proc_2
      + 969 pi_d_a4_a1_proc_2 + 969 pi_d_a4_a2_proc_2 + 969 pi_d_a4_a5_proc_2
      + 969 pi_d_a4_a6_proc_2 + 969 pi_d_a4_a7_proc_2 + 969 pi_d_a4_a8_proc_2
      + 969 pi_d_a4_a9_proc_2 + pi_y1_a4 + pi_y2_a4_proc_2 >= 0
 c24: pi_p_a5_a2 - pi_p_a8_a5 - pi_p_a6_a5 + pi_p_a5_a8 + pi_p_a5_a3
      - pi_d_a0_a5_proc_2 - pi_d_a0_a5_proc_1 + pi_d_a5_a0_proc_2
      + pi_d_a5_a0_proc_1 - pi_d_a1_a5_proc_2 + pi_d_a5_a1_proc_2
      - pi_d_a2_a5_proc_2 + pi_d_a5_a2_proc_2 - pi_d_a3_a5_proc_1
      + pi_d_a5_a3_proc_1 - pi_d_a4_a5_proc_2 - pi_d_a4_a5_proc_1
      + pi_d_a5_a4_proc_2 + pi_d_a5_a4_proc_1 + pi_d_a5_a6_proc_2
      + pi_d_a5_a6_proc_1 - pi_d_a6_a5_proc_2 - pi_d_a6_a5_proc_1
      + pi_d_a5_a7_proc_2 + pi_d_a5_a7_proc_1 - pi_d_a7_a5_proc_2
      - pi_d_a7_a5_proc_1 + pi_d_a5_a8_proc_2 + pi_d_a5_a8_proc_1
      - pi_d_a8_a5_proc_2 - pi_d_a8_a5_proc_1 + pi_d_a5_a9_proc_2
      + pi_d_a5_a9_proc_1 - pi_d_a9_a5_proc_2 - pi_d_a9_a5_proc_1 >= 0
 c25: 538 pi_p_a5_a2 + 538 pi_p_a5_a8 + 538 pi_p_a5_a3 + 538 pi_d_a5_a0_proc_1
      + 538 pi_d_a5_a3_proc_1 + 538 pi_d_a5_a4_proc_1 + 538 pi_d_a5_a6_proc_1
      + 538 pi_d_a5_a7_proc_1 + 538 pi_d_a5_a8_proc_1 + 538 pi_d_a5_a9_proc_1
      + pi_y1_a5 + pi_y2_a5_proc_1 >= 0
 c26: 963 pi_p_a5_a2 + 963 pi_p_a5_a8 + 963 pi_p_a5_a3 + 963 pi_d_a5_a0_proc_2
      + 963 pi_d_a5_a1_proc_2 + 963 pi_d_a5_a2_proc_2 + 963 pi_d_a5_a4_proc_2
      + 963 pi_d_a5_a6_proc_2 + 963 pi_d_a5_a7_proc_2 + 963 pi_d_a5_a8_proc_2
      + 963 pi_d_a5_a9_proc_2 + pi_y1_a5 + pi_y2_a5_proc_2 >= 0
 c27: - pi_p_a3_a6 + pi_p_a6_a7 + pi_p_a6_a3 - pi_p_a2_a6 + pi_p_a6_a5
      - pi_d_a0_a6_proc_2 - pi_d_a0_a6_proc_3 - pi_d_a0_a6_proc_0
      - pi_d_a0_a6_proc_1 + pi_d_a6_a0_proc_2 + pi_d_a6_a0_proc_3
      + pi_d_a6_a0_proc_0 + pi_d_a6_a0_proc_1 - pi_d_a1_a6_proc_2
      - pi_d_a1_a6_proc_3 - pi_d_a1_a6_proc_0 + pi_d_a6_a1_proc_2
      + pi_d_a6_a1_proc_3 + pi_d_a6_a1_proc_0 - pi_d_a2_a6_proc_2
      - pi_d_a2_a6_proc_3 - pi_d_a2_a6_proc_0 + pi_d_a6_a2_proc_2
      + pi_d_a6_a2_proc_3 + pi_d_a6_a2_proc_0 - pi_d_a3_a6_proc_3
      - pi_d_a3_a6_proc_0 - pi_d_a3_a6_proc_1 + pi_d_a6_a3_proc_3
      + pi_d_a6_a3_proc_0 + pi_d_a6_a3_proc_1 - pi_d_a4_a6_proc_2
      - pi_d_a4_a6_proc_0 - pi_d_a4_a6_proc_1 + pi_d_a6_a4_proc_2
      + pi_d_a6_a4_proc_0 + pi_d_a6_a4_proc_1 - pi_d_a5_a6_proc_2
      - pi_d_a5_a6_proc_1 + pi_d_a6_a5_proc_2 + pi_d_a6_a5_proc_1
      + pi_d_a6_a7_proc_2 + pi_d_a6_a7_proc_3 + pi_d_a6_a7_proc_0
      + pi_d_a6_a7_proc_1 - pi_d_a7_a6_proc_2 - pi_d_a7_a6_proc_3
      - pi_d_a7_a6_proc_0 - pi_d_a7_a6_proc_1 + pi_d_a6_a8_proc_2
      + pi_d_a6_a8_proc_0 + pi_d_a6_a8_proc_1 - pi_d_a8_a6_proc_2
      - pi_d_a8_a6_proc_0 - pi_d_a8_a6_proc_1 + pi_d_a6_a9_proc_2
      + pi_d_a6_a9_proc_3 + pi_d_a6_a9_proc_0 + pi_d_a6_a9_proc_1
      - pi_d_a9_a6_proc_2 - pi_d_a9_a6_proc_3 - pi_d_a9_a6_proc_0
      - pi_d_a9_a6_proc_1 >= 0
 c28: 1037 pi_p_a6_a7 + 1037 pi_p_a6_a3 + 1037 pi_p_a6_a5
      + 1037 pi_d_a6_a0_proc_0 + 1037 pi_d_a6_a1_proc_0 + 1037 pi_d_a6_a2_proc_0
      + 1037 pi_d_a6_a3_proc_0 + 1037 pi_d_a6_a4_proc_0 + 1037 pi_d_a6_a7_proc_0
      + 1037 pi_d_a6_a8_proc_0 + 1037 pi_d_a6_a9_proc_0 + pi_y1_a6
      + pi_y2_a6_proc_0 >= 0
 c29: 946 pi_p_a6_a7 + 946 pi_p_a6_a3 + 946 pi_p_a6_a5 + 946 pi_d_a6_a0_proc_1
      + 946 pi_d_a6_a3_proc_1 + 946 pi_d_a6_a4_proc_1 + 946 pi_d_a6_a5_proc_1
      + 946 pi_d_a6_a7_proc_1 + 946 pi_d_a6_a8_proc_1 + 946 pi_d_a6_a9_proc_1
      + pi_y1_a6 + pi_y2_a6_proc_1 >= 0
 c30: 822 pi_p_a6_a7 + 822 pi_p_a6_a3 + 822 pi_p_a6_a5 + 822 pi_d_a6_a0_proc_2
      + 822 pi_d_a6_a1_proc_2 + 822 pi_d_a6_a2_proc_2 + 822 pi_d_a6_a4_proc_2
      + 822 pi_d_a6_a5_proc_2 + 822 pi_d_a6_a7_proc_2 + 822 pi_d_a6_a8_proc_2
      + 822 pi_d_a6_a9_proc_2 + pi_y1_a6 + pi_y2_a6_proc_2 >= 0
 c31: 1227 pi_p_a6_a7 + 1227 pi_p_a6_a3 + 1227 pi_p_a6_a5
      + 1227 pi_d_a6_a0_proc_3 + 1227 pi_d_a6_a1_proc_3 + 1227 pi_d_a6_a2_proc_3
      + 1227 pi_d_a6_a3_proc_3 + 1227 pi_d_a6_a7_proc_3 + 1227 pi_d_a6_a9_proc_3
      + pi_y1_a6 + pi_y2_a6_proc_3 >= 0
 c32: - pi_p_a6_a7 + pi_p_a7_a2 - pi_d_a0_a7_proc_2 - pi_d_a0_a7_proc_3
      - pi_d_a0_a7_proc_0 - pi_d_a0_a7_proc_1 + pi_d_a7_a0_proc_2
      + pi_d_a7_a0_proc_3 + pi_d_a7_a0_proc_0 + pi_d_a7_a0_proc_1
      - pi_d_a1_a7_proc_2 - pi_d_a1_a7_proc_3 - pi_d_a1_a7_proc_0
      + pi_d_a7_a1_proc_2 + pi_d_a7_a1_proc_3 + pi_d_a7_a1_proc_0
      - pi_d_a2_a7_proc_2 - pi_d_a2_a7_proc_3 - pi_d_a2_a7_proc_0
      + pi_d_a7_a2_proc_2 + pi_d_a7_a2_proc_3 + pi_d_a7_a2_proc_0
      - pi_d_a3_a7_proc_3 - pi_d_a3_a7_proc_0 - pi_d_a3_a7_proc_1
      + pi_d_a7_a3_proc_3 + pi_d_a7_a3_proc_0 + pi_d_a7_a3_proc_1
      - pi_d_a4_a7_proc_2 - pi_d_a4_a7_proc_0 - pi_d_a4_a7_proc_1
      + pi_d_a7_a4_proc_2 + pi_d_a7_a4_proc_0 + pi_d_a7_a4_proc_1
      - pi_d_a5_a7_proc_2 - pi_d_a5_a7_proc_1 + pi_d_a7_a5_proc_2
      + pi_d_a7_a5_proc_1 - pi_d_a6_a7_proc_2 - pi_d_a6_a7_proc_3
      - pi_d_a6_a7_proc_0 - pi_d_a6_a7_proc_1 + pi_d_a7_a6_proc_2
      + pi_d_a7_a6_proc_3 + pi_d_a7_a6_proc_0 + pi_d_a7_a6_proc_1
      + pi_d_a7_a8_proc_2 + pi_d_a7_a8_proc_0 + pi_d_a7_a8_proc_1
      - pi_d_a8_a7_proc_2 - pi_d_a8_a7_proc_0 - pi_d_a8_a7_proc_1
      + pi_d_a7_a9_proc_2 + pi_d_a7_a9_proc_3 + pi_d_a7_a9_proc_0
      + pi_d_a7_a9_proc_1 - pi_d_a9_a7_proc_2 - pi_d_a9_a7_proc_3
      - pi_d_a9_a7_proc_0 - pi_d_a9_a7_proc_1 >= 0
 c33: 1242 pi_p_a7_a2 + 1242 pi_d_a7_a0_proc_0 + 1242 pi_d_a7_a1_proc_0
      + 1242 pi_d_a7_a2_proc_0 + 1242 pi_d_a7_a3_proc_0 + 1242 pi_d_a7_a4_proc_0
      + 1242 pi_d_a7_a6_proc_0 + 1242 pi_d_a7_a8_proc_0 + 1242 pi_d_a7_a9_proc_0
      + pi_y1_a7 + pi_y2_a7_proc_0 >= 0
 c34: 1282 pi_p_a7_a2 + 1282 pi_d_a7_a0_proc_1 + 1282 pi_d_a7_a3_proc_1
      + 1282 pi_d_a7_a4_proc_1 + 1282 pi_d_a7_a5_proc_1 + 1282 pi_d_a7_a6_proc_1
      + 1282 pi_d_a7_a8_proc_1 + 1282 pi_d_a7_a9_proc_1 + pi_y1_a7
      + pi_y2_a7_proc_1 >= 0
 c35: 852 pi_p_a7_a2 + 852 pi_d_a7_a0_proc_2 + 852 pi_d_a7_a1_proc_2
      + 852 pi_d_a7_a2_proc_2 + 852 pi_d_a7_a4_proc_2 + 852 pi_d_a7_a5_proc_2
      + 852 pi_d_a7_a6_proc_2 + 852 pi_d_a7_a8_proc_2 + 852 pi_d_a7_a9_proc_2
      + pi_y1_a7 + pi_y2_a7_proc_2 >= 0
 c36: 806 pi_p_a7_a2 + 806 pi_d_a7_a0_proc_3 + 806 pi_d_a7_a1_proc_3
      + 806 pi_d_a7_a2_proc_3 + 806 pi_d_a7_a3_proc_3 + 806 pi_d_a7_a6_proc_3
      + 806 pi_d_a7_a9_proc_3 + pi_y1_a7 + pi_y2_a7_proc_3 >= 0
 c37: - pi_p_a3_a8 - pi_p_a9_a8 + pi_p_a8_a5 - pi_p_a5_a8 - pi_d_a0_a8_proc_2
      - pi_d_a0_a8_proc_0 - pi_d_a0_a8_proc_1 + pi_d_a8_a0_proc_2
      + pi_d_a8_a0_proc_0 + pi_d_a8_a0_proc_1 - pi_d_a1_a8_proc_2
      - pi_d_a1_a8_proc_0 + pi_d_a8_a1_proc_2 + pi_d_a8_a1_proc_0
      - pi_d_a2_a8_proc_2 - pi_d_a2_a8_proc_0 + pi_d_a8_a2_proc_2
      + pi_d_a8_a2_proc_0 - pi_d_a3_a8_proc_0 - pi_d_a3_a8_proc_1
      + pi_d_a8_a3_proc_0 + pi_d_a8_a3_proc_1 - pi_d_a4_a8_proc_2
      - pi_d_a4_a8_proc_0 - pi_d_a4_a8_proc_1 + pi_d_a8_a4_proc_2
      + pi_d_a8_a4_proc_0 + pi_d_a8_a4_proc_1 - pi_d_a5_a8_proc_2
      - pi_d_a5_a8_proc_1 + pi_d_a8_a5_proc_2 + pi_d_a8_a5_proc_1
      - pi_d_a6_a8_proc_2 - pi_d_a6_a8_proc_0 - pi_d_a6_a8_proc_1
      + pi_d_a8_a6_proc_2 + pi_d_a8_a6_proc_0 + pi_d_a8_a6_proc_1
      - pi_d_a7_a8_proc_2 - pi_d_a7_a8_proc_0 - pi_d_a7_a8_proc_1
      + pi_d_a8_a7_proc_2 + pi_d_a8_a7_proc_0 + pi_d_a8_a7_proc_1
      + pi_d_a8_a9_proc_2 + pi_d_a8_a9_proc_0 + pi_d_a8_a9_proc_1
      - pi_d_a9_a8_proc_2 - pi_d_a9_a8_proc_0 - pi_d_a9_a8_proc_1 >= 0
 c38: 1150 pi_p_a8_a5 + 1150 pi_d_a8_a0_proc_0 + 1150 pi_d_a8_a1_proc_0
      + 1150 pi_d_a8_a2_proc_0 + 1150 pi_d_a8_a3_proc_0 + 1150 pi_d_a8_a4_proc_0
      + 1150 pi_d_a8_a6_proc_0 + 1150 pi_d_a8_a7_proc_0 + 1150 pi_d_a8_a9_proc_0
      + pi_y1_a8 + pi_y2_a8_proc_0 >= 0
 c39: 923 pi_p_a8_a5 + 923 pi_d_a8_a0_proc_1 + 923 pi_d_a8_a3_proc_1
      + 923 pi_d_a8_a4_proc_1 + 923 pi_d_a8_a5_proc_1 + 923 pi_d_a8_a6_proc_1
      + 923 pi_d_a8_a7_proc_1 + 923 pi_d_a8_a9_proc_1 + pi_y1_a8
      + pi_y2_a8_proc_1 >= 0
 c40: 799 pi_p_a8_a5 + 799 pi_d_a8_a0_proc_2 + 799 pi_d_a8_a1_proc_2
      + 799 pi_d_a8_a2_proc_2 + 799 pi_d_a8_a4_proc_2 + 799 pi_d_a8_a5_proc_2
      + 799 pi_d_a8_a6_proc_2 + 799 pi_d_a8_a7_proc_2 + 799 pi_d_a8_a9_proc_2
      + pi_y1_a8 + pi_y2_a8_proc_2 >= 0
 c41: - pi_p_a0_a9 + pi_p_a9_a8 - pi_p_a4_a9 - pi_d_a0_a9_proc_2
      - pi_d_a0_a9_proc_3 - pi_d_a0_a9_proc_0 - pi_d_a0_a9_proc_1
      + pi_d_a9_a0_proc_2 + pi_d_a9_a0_proc_3 + pi_d_a9_a0_proc_0
      + pi_d_a9_a0_proc_1 - pi_d_a1_a9_proc_2 - pi_d_a1_a9_proc_3
      - pi_d_a1_a9_proc_0 + pi_d_a9_a1_proc_2 + pi_d_a9_a1_proc_3
      + pi_d_a9_a1_proc_0 - pi_d_a2_a9_proc_2 - pi_d_a2_a9_proc_3
      - pi_d_a2_a9_proc_0 + pi_d_a9_a2_proc_2 + pi_d_a9_a2_proc_3
      + pi_d_a9_a2_proc_0 - pi_d_a3_a9_proc_3 - pi_d_a3_a9_proc_0
      - pi_d_a3_a9_proc_1 + pi_d_a9_a3_proc_3 + pi_d_a9_a3_proc_0
      + pi_d_a9_a3_proc_1 - pi_d_a4_a9_proc_2 - pi_d_a4_a9_proc_0
      - pi_d_a4_a9_proc_1 + pi_d_a9_a4_proc_2 + pi_d_a9_a4_proc_0
      + pi_d_a9_a4_proc_1 - pi_d_a5_a9_proc_2 - pi_d_a5_a9_proc_1
      + pi_d_a9_a5_proc_2 + pi_d_a9_a5_proc_1 - pi_d_a6_a9_proc_2
      - pi_d_a6_a9_proc_3 - pi_d_a6_a9_proc_0 - pi_d_a6_a9_proc_1
      + pi_d_a9_a6_proc_2 + pi_d_a9_a6_proc_3 + pi_d_a9_a6_proc_0
      + pi_d_a9_a6_proc_1 - pi_d_a7_a9_proc_2 - pi_d_a7_a9_proc_3
      - pi_d_a7_a9_proc_0 - pi_d_a7_a9_proc_1 + pi_d_a9_a7_proc_2
      + pi_d_a9_a7_proc_3 + pi_d_a9_a7_proc_0 + pi_d_a9_a7_proc_1
      - pi_d_a8_a9_proc_2 - pi_d_a8_a9_proc_0 - pi_d_a8_a9_proc_1
      + pi_d_a9_a8_proc_2 + pi_d_a9_a8_proc_0 + pi_d_a9_a8_proc_1 >= 0
 c42: 1295 pi_p_a9_a8 + 1295 pi_d_a9_a0_proc_0 + 1295 pi_d_a9_a1_proc_0
      + 1295 pi_d_a9_a2_proc_0 + 1295 pi_d_a9_a3_proc_0 + 1295 pi_d_a9_a4_proc_0
      + 1295 pi_d_a9_a6_proc_0 + 1295 pi_d_a9_a7_proc_0 + 1295 pi_d_a9_a8_proc_0
      + pi_y1_a9 + pi_y2_a9_proc_0 >= 0
 c43: 941 pi_p_a9_a8 + 941 pi_d_a9_a0_proc_1 + 941 pi_d_a9_a3_proc_1
      + 941 pi_d_a9_a4_proc_1 + 941 pi_d_a9_a5_proc_1 + 941 pi_d_a9_a6_proc_1
      + 941 pi_d_a9_a7_proc_1 + 941 pi_d_a9_a8_proc_1 + pi_y1_a9
      + pi_y2_a9_proc_1 >= 0
 c44: 1199 pi_p_a9_a8 + 1199 pi_d_a9_a0_proc_2 + 1199 pi_d_a9_a1_proc_2
      + 1199 pi_d_a9_a2_proc_2 + 1199 pi_d_a9_a4_proc_2 + 1199 pi_d_a9_a5_proc_2
      + 1199 pi_d_a9_a6_proc_2 + 1199 pi_d_a9_a7_proc_2 + 1199 pi_d_a9_a8_proc_2
      + pi_y1_a9 + pi_y2_a9_proc_2 >= 0
 c45: 1107 pi_p_a9_a8 + 1107 pi_d_a9_a0_proc_3 + 1107 pi_d_a9_a1_proc_3
      + 1107 pi_d_a9_a2_proc_3 + 1107 pi_d_a9_a3_proc_3 + 1107 pi_d_a9_a6_proc_3
      + 1107 pi_d_a9_a7_proc_3 + pi_y1_a9 + pi_y2_a9_proc_3 >= 0

Bounds
       pi_y1_a0 Free
       pi_y1_a1 Free
       pi_y1_a2 Free
       pi_y1_a3 Free
       pi_y1_a4 Free
       pi_y1_a5 Free
       pi_y1_a6 Free
       pi_y1_a7 Free
       pi_y1_a8 Free
       pi_y1_a9 Free
End
