benchmark/results/graph__10-1000-0.10-04_19/graph__10-1000-0.10-04_19_Quinton_Benders_aux.txt
solution for: Quinton Benders_auxiliary_sub
objective: 0.0546724
status: OPTIMAL_SOLUTION(2)
pi_p_a5_a2=0.000
pi_p_a2_a6=0.000
pi_p_a9_a8=0.000
pi_p_a8_a5=0.000
pi_d_a6_a4_proc_2=0.000
pi_d_a4_a9_proc_1=0.000
pi_y1_a2=-0.171
pi_y1_a4=-0.239
pi_y1_a5=-0.102
pi_y1_a6=-0.157
pi_y1_a8=-0.152
pi_y1_a9=-0.179
pi_y2_a4_proc_0=0.239
pi_y2_a4_proc_2=0.239
pi_y2_a6_proc_0=0.157
pi_y2_a6_proc_1=0.157
pi_y2_a6_proc_3=0.157
